1543987
48,22,64,15,23,79,4,67,24,109,90,3,25,81,84,51,59,2,46,94,16,107,29,34,82,35,98,1,5,101,45,52,83,63,20,44,32,95,6,61,85,43,30,103,56,92,74,10,77,66,9,75,57,86,27,69,70,14,89,91,11,49,38,41,37,26,72,31,39,8,28,40,68,55,42,108,62,19,106,88,71,47,97,58,102,104,54,100,60,65,12,36,50,7,18,105,73,87,33,78,76,99,93,96,13,21,53,17,80